c This Formular was created for testing purposes
c
c    horn? no
c    forced? no
c    mixed sat? no
c    clause length = 3
c
p cnf
1	11	20
2	12	4
3	13	6
4	14	-13
5	15	-3
6	16	-10
7	17	-18
8	18	7
9	19	11
10	20	2
-21	31	41
22	32	7
-23	33	15
24	34	14
25	35	-7
-26	36	31
27	37	13
28	-38	26
29	39	18
30	-40	17
41	51	2
42	52	16
43	-53	21
44	54	-10
45	55	20
46	-56	10
47	-57	-8
48	58	31
49	59	11
50	-60	1
%
0
